p cnf 180 352
-6 0
-5 7 8 9 10 11 0
-7 -8 0
-7 -9 0
-7 -10 0
-7 -11 0
-8 -9 0
-8 -10 0
-8 -11 0
-9 -10 0
-9 -11 0
-10 -11 0
-1 5 0
-5 1 0
-13 0
-12 14 15 16 17 18 0
-14 -15 0
-14 -16 0
-14 -17 0
-14 -18 0
-15 -16 0
-15 -17 0
-15 -18 0
-16 -17 0
-16 -18 0
-17 -18 0
-1 12 0
-12 1 0
-20 0
-19 21 22 23 24 25 0
-21 -22 0
-21 -23 0
-21 -24 0
-21 -25 0
-22 -23 0
-22 -24 0
-22 -25 0
-23 -24 0
-23 -25 0
-24 -25 0
-1 19 0
-19 1 0
-27 0
-26 28 29 30 31 32 0
-28 -29 0
-28 -30 0
-28 -31 0
-28 -32 0
-29 -30 0
-29 -31 0
-29 -32 0
-30 -31 0
-30 -32 0
-31 -32 0
-1 26 0
-26 1 0
-34 0
-33 35 36 37 38 39 0
-35 -36 0
-35 -37 0
-35 -38 0
-35 -39 0
-36 -37 0
-36 -38 0
-36 -39 0
-37 -38 0
-37 -39 0
-38 -39 0
-1 33 0
-33 1 0
-41 0
-40 42 43 44 45 46 0
-42 -43 0
-42 -44 0
-42 -45 0
-42 -46 0
-43 -44 0
-43 -45 0
-43 -46 0
-44 -45 0
-44 -46 0
-45 -46 0
-1 40 0
-40 1 0
-48 0
-47 49 50 51 52 53 0
-49 -50 0
-49 -51 0
-49 -52 0
-49 -53 0
-50 -51 0
-50 -52 0
-50 -53 0
-51 -52 0
-51 -53 0
-52 -53 0
-1 47 0
-47 1 0
-55 0
-54 56 57 58 59 60 0
-56 -57 0
-56 -58 0
-56 -59 0
-56 -60 0
-57 -58 0
-57 -59 0
-57 -60 0
-58 -59 0
-58 -60 0
-59 -60 0
-1 54 0
-54 1 0
-62 0
-61 63 64 65 66 67 0
-63 -64 0
-63 -65 0
-63 -66 0
-63 -67 0
-64 -65 0
-64 -66 0
-64 -67 0
-65 -66 0
-65 -67 0
-66 -67 0
-1 61 0
-61 1 0
-69 0
-68 70 71 72 73 74 0
-70 -71 0
-70 -72 0
-70 -73 0
-70 -74 0
-71 -72 0
-71 -73 0
-71 -74 0
-72 -73 0
-72 -74 0
-73 -74 0
-1 68 0
-68 1 0
-76 0
-75 77 78 79 80 81 0
-77 -78 0
-77 -79 0
-77 -80 0
-77 -81 0
-78 -79 0
-78 -80 0
-78 -81 0
-79 -80 0
-79 -81 0
-80 -81 0
-1 75 0
-75 1 0
-83 0
-82 84 85 86 87 88 0
-84 -85 0
-84 -86 0
-84 -87 0
-84 -88 0
-85 -86 0
-85 -87 0
-85 -88 0
-86 -87 0
-86 -88 0
-87 -88 0
-1 82 0
-82 1 0
-90 0
-89 91 92 93 94 95 0
-91 -92 0
-91 -93 0
-91 -94 0
-91 -95 0
-92 -93 0
-92 -94 0
-92 -95 0
-93 -94 0
-93 -95 0
-94 -95 0
-1 89 0
-89 1 0
-97 0
-96 98 99 100 101 102 0
-98 -99 0
-98 -100 0
-98 -101 0
-98 -102 0
-99 -100 0
-99 -101 0
-99 -102 0
-100 -101 0
-100 -102 0
-101 -102 0
-1 96 0
-96 1 0
-104 0
-103 105 106 107 108 109 0
-105 -106 0
-105 -107 0
-105 -108 0
-105 -109 0
-106 -107 0
-106 -108 0
-106 -109 0
-107 -108 0
-107 -109 0
-108 -109 0
-1 103 0
-103 1 0
-111 0
-110 112 113 114 115 116 0
-112 -113 0
-112 -114 0
-112 -115 0
-112 -116 0
-113 -114 0
-113 -115 0
-113 -116 0
-114 -115 0
-114 -116 0
-115 -116 0
-1 110 0
-110 1 0
-118 0
-117 119 120 121 122 123 0
-119 -120 0
-119 -121 0
-119 -122 0
-119 -123 0
-120 -121 0
-120 -122 0
-120 -123 0
-121 -122 0
-121 -123 0
-122 -123 0
-1 117 0
-117 1 0
-125 0
-124 126 127 128 129 130 0
-126 -127 0
-126 -128 0
-126 -129 0
-126 -130 0
-127 -128 0
-127 -129 0
-127 -130 0
-128 -129 0
-128 -130 0
-129 -130 0
-1 124 0
-124 1 0
-132 0
-131 133 134 135 136 137 0
-133 -134 0
-133 -135 0
-133 -136 0
-133 -137 0
-134 -135 0
-134 -136 0
-134 -137 0
-135 -136 0
-135 -137 0
-136 -137 0
-1 131 0
-131 1 0
-139 0
-138 140 141 142 143 144 0
-140 -141 0
-140 -142 0
-140 -143 0
-140 -144 0
-141 -142 0
-141 -143 0
-141 -144 0
-142 -143 0
-142 -144 0
-143 -144 0
-1 138 0
-138 1 0
-146 0
-145 147 148 149 150 151 0
-147 -148 0
-147 -149 0
-147 -150 0
-147 -151 0
-148 -149 0
-148 -150 0
-148 -151 0
-149 -150 0
-149 -151 0
-150 -151 0
-1 145 0
-145 1 0
-153 0
-152 154 155 156 157 158 0
-154 -155 0
-154 -156 0
-154 -157 0
-154 -158 0
-155 -156 0
-155 -157 0
-155 -158 0
-156 -157 0
-156 -158 0
-157 -158 0
-1 152 0
-152 1 0
-160 0
-159 161 162 163 164 165 0
-161 -162 0
-161 -163 0
-161 -164 0
-161 -165 0
-162 -163 0
-162 -164 0
-162 -165 0
-163 -164 0
-163 -165 0
-164 -165 0
-1 159 0
-159 1 0
-167 0
-166 168 169 170 171 172 0
-168 -169 0
-168 -170 0
-168 -171 0
-168 -172 0
-169 -170 0
-169 -171 0
-169 -172 0
-170 -171 0
-170 -172 0
-171 -172 0
-1 166 0
-166 1 0
-174 0
-173 175 176 177 178 179 0
-175 -176 0
-175 -177 0
-175 -178 0
-175 -179 0
-176 -177 0
-176 -178 0
-176 -179 0
-177 -178 0
-177 -179 0
-178 -179 0
-1 173 0
-173 1 0
-3 180 0
-180 3 0
a 6 13 20 27 34 41 48 55 62 69 76 83 90 97 104 111 118 125 132 139 146 153 160 167 174 0
